timesteps := 1000
FixDt = 10.0e-12
runtime := timesteps * FixDt;

Nx := 200
Ny := 200
Nz := 1

//Strip found in the Chumak paper


dx := 25.0E-9
dy := 25.0E-9
dz := 25.0E-9

setgridsize(Nx, Ny, Nz)
setcellsize(dx, dy, dz)


Aex  = 3.65E-12
alpha= 5.0E-3
Msat = 1.40E+5
Ms:= 1.40E+5
m = uniform(0.0, 0.1, 1.0)



OutputFormat = OVF2_TEXT

alpha_start :=  5.0E-3  //default / bulk damping
alpha_end :=  0.5 //maximum damping toward the edge of the structure

dregnum := 10 //number of damping regions per side
dregthickness := 1;  //thickness of damping regions 


for i :=dregnum; i>=0; i--{
  alpha_local := alpha_start + (alpha_end-alpha_start)*pow(i,2)/pow(dregnum,2)
  damprect := rect((Nx-(dregnum-i)*dregthickness*2)*dx,(Ny-(dregnum-i)*dregthickness*2)*dy)
  // print(alpha_local)
  defregion(i,damprect)
  alpha.setregion(i, alpha_local)
}


// saturation magnetization
// defregion(255,0.png"))             //0.950000
// Msat.setregion(255, Ms*0.950000)

defregion(254,1.png"))             //0.951000
Msat.setregion(254, Ms*0.951000)

defregion(253,2.png"))             //0.952000
Msat.setregion(253, Ms*0.952000)

defregion(252,3.png"))             //0.953000
Msat.setregion(252, Ms*0.953000)

defregion(251,4.png"))             //0.954000
Msat.setregion(251, Ms*0.954000)

defregion(250,5.png"))             //0.955000
Msat.setregion(250, Ms*0.955000)

defregion(249,6.png"))             //0.956000
Msat.setregion(249, Ms*0.956000)

defregion(248,7.png"))             //0.957000
Msat.setregion(248, Ms*0.957000)

defregion(247,8.png"))             //0.958000
Msat.setregion(247, Ms*0.958000)

defregion(246,9.png"))             //0.959000
Msat.setregion(246, Ms*0.959000)

defregion(245,10.png"))             //0.960000
Msat.setregion(245, Ms*0.960000)

defregion(244,11.png"))             //0.961000
Msat.setregion(244, Ms*0.961000)

defregion(243,12.png"))             //0.962000
Msat.setregion(243, Ms*0.962000)

defregion(242,13.png"))             //0.963000
Msat.setregion(242, Ms*0.963000)

defregion(241,14.png"))             //0.964000
Msat.setregion(241, Ms*0.964000)

defregion(240,15.png"))             //0.965000
Msat.setregion(240, Ms*0.965000)

defregion(239,16.png"))             //0.966000
Msat.setregion(239, Ms*0.966000)

defregion(238,17.png"))             //0.967000
Msat.setregion(238, Ms*0.967000)

defregion(237,18.png"))             //0.968000
Msat.setregion(237, Ms*0.968000)

defregion(236,19.png"))             //0.969000
Msat.setregion(236, Ms*0.969000)

defregion(235,20.png"))             //0.970000
Msat.setregion(235, Ms*0.970000)

defregion(234,21.png"))             //0.971000
Msat.setregion(234, Ms*0.971000)

defregion(233,22.png"))             //0.972000
Msat.setregion(233, Ms*0.972000)

defregion(232,23.png"))             //0.973000
Msat.setregion(232, Ms*0.973000)

defregion(231,24.png"))             //0.974000
Msat.setregion(231, Ms*0.974000)

defregion(230,25.png"))             //0.975000
Msat.setregion(230, Ms*0.975000)

defregion(229,26.png"))             //0.976000
Msat.setregion(229, Ms*0.976000)

defregion(228,27.png"))             //0.977000
Msat.setregion(228, Ms*0.977000)

defregion(227,28.png"))             //0.978000
Msat.setregion(227, Ms*0.978000)

defregion(226,29.png"))             //0.979000
Msat.setregion(226, Ms*0.979000)

defregion(225,30.png"))             //0.980000
Msat.setregion(225, Ms*0.980000)

defregion(224,31.png"))             //0.981000
Msat.setregion(224, Ms*0.981000)

defregion(223,32.png"))             //0.982000
Msat.setregion(223, Ms*0.982000)

defregion(222,33.png"))             //0.983000
Msat.setregion(222, Ms*0.983000)

defregion(221,34.png"))             //0.984000
Msat.setregion(221, Ms*0.984000)

defregion(220,35.png"))             //0.985000
Msat.setregion(220, Ms*0.985000)

defregion(219,36.png"))             //0.986000
Msat.setregion(219, Ms*0.986000)

defregion(218,37.png"))             //0.987000
Msat.setregion(218, Ms*0.987000)

defregion(217,38.png"))             //0.988000
Msat.setregion(217, Ms*0.988000)

defregion(216,39.png"))             //0.989000
Msat.setregion(216, Ms*0.989000)

defregion(215,40.png"))             //0.990000
Msat.setregion(215, Ms*0.990000)

defregion(214,41.png"))             //0.991000
Msat.setregion(214, Ms*0.991000)

defregion(213,42.png"))             //0.992000
Msat.setregion(213, Ms*0.992000)

defregion(212,43.png"))             //0.993000
Msat.setregion(212, Ms*0.993000)

defregion(211,44.png"))             //0.994000
Msat.setregion(211, Ms*0.994000)

defregion(210,45.png"))             //0.995000
Msat.setregion(210, Ms*0.995000)

defregion(209,46.png"))             //0.996000
Msat.setregion(209, Ms*0.996000)

defregion(208,47.png"))             //0.997000
Msat.setregion(208, Ms*0.997000)

defregion(207,48.png"))             //0.998000
Msat.setregion(207, Ms*0.998000)

defregion(206,49.png"))             //0.999000
Msat.setregion(206, Ms*0.999000)

defregion(205,50.png"))             //1.000000
Msat.setregion(205, Ms*1.000000)

defregion(204,51.png"))             //1.001000
Msat.setregion(204, Ms*1.001000)

defregion(203,52.png"))             //1.002000
Msat.setregion(203, Ms*1.002000)

defregion(202,53.png"))             //1.003000
Msat.setregion(202, Ms*1.003000)

defregion(201,54.png"))             //1.004000
Msat.setregion(201, Ms*1.004000)

defregion(200,55.png"))             //1.005000
Msat.setregion(200, Ms*1.005000)

defregion(199,56.png"))             //1.006000
Msat.setregion(199, Ms*1.006000)

defregion(198,57.png"))             //1.007000
Msat.setregion(198, Ms*1.007000)

defregion(197,58.png"))             //1.008000
Msat.setregion(197, Ms*1.008000)

defregion(196,59.png"))             //1.009000
Msat.setregion(196, Ms*1.009000)

defregion(195,60.png"))             //1.010000
Msat.setregion(195, Ms*1.010000)

defregion(194,61.png"))             //1.011000
Msat.setregion(194, Ms*1.011000)

defregion(193,62.png"))             //1.012000
Msat.setregion(193, Ms*1.012000)

defregion(192,63.png"))             //1.013000
Msat.setregion(192, Ms*1.013000)

defregion(191,64.png"))             //1.014000
Msat.setregion(191, Ms*1.014000)

defregion(190,65.png"))             //1.015000
Msat.setregion(190, Ms*1.015000)

defregion(189,66.png"))             //1.016000
Msat.setregion(189, Ms*1.016000)

defregion(188,67.png"))             //1.017000
Msat.setregion(188, Ms*1.017000)

defregion(187,68.png"))             //1.018000
Msat.setregion(187, Ms*1.018000)

defregion(186,69.png"))             //1.019000
Msat.setregion(186, Ms*1.019000)

defregion(185,70.png"))             //1.020000
Msat.setregion(185, Ms*1.020000)

defregion(184,71.png"))             //1.021000
Msat.setregion(184, Ms*1.021000)

defregion(183,72.png"))             //1.022000
Msat.setregion(183, Ms*1.022000)

defregion(182,73.png"))             //1.023000
Msat.setregion(182, Ms*1.023000)

defregion(181,74.png"))             //1.024000
Msat.setregion(181, Ms*1.024000)

defregion(180,75.png"))             //1.025000
Msat.setregion(180, Ms*1.025000)

defregion(179,76.png"))             //1.026000
Msat.setregion(179, Ms*1.026000)

defregion(178,77.png"))             //1.027000
Msat.setregion(178, Ms*1.027000)

defregion(177,78.png"))             //1.028000
Msat.setregion(177, Ms*1.028000)

defregion(176,79.png"))             //1.029000
Msat.setregion(176, Ms*1.029000)

defregion(175,80.png"))             //1.030000
Msat.setregion(175, Ms*1.030000)

defregion(174,81.png"))             //1.031000
Msat.setregion(174, Ms*1.031000)

defregion(173,82.png"))             //1.032000
Msat.setregion(173, Ms*1.032000)

defregion(172,83.png"))             //1.033000
Msat.setregion(172, Ms*1.033000)

defregion(171,84.png"))             //1.034000
Msat.setregion(171, Ms*1.034000)

defregion(170,85.png"))             //1.035000
Msat.setregion(170, Ms*1.035000)

defregion(169,86.png"))             //1.036000
Msat.setregion(169, Ms*1.036000)

defregion(168,87.png"))             //1.037000
Msat.setregion(168, Ms*1.037000)

defregion(167,88.png"))             //1.038000
Msat.setregion(167, Ms*1.038000)

defregion(166,89.png"))             //1.039000
Msat.setregion(166, Ms*1.039000)

defregion(165,90.png"))             //1.040000
Msat.setregion(165, Ms*1.040000)

defregion(164,91.png"))             //1.041000
Msat.setregion(164, Ms*1.041000)

defregion(163,92.png"))             //1.042000
Msat.setregion(163, Ms*1.042000)

defregion(162,93.png"))             //1.043000
Msat.setregion(162, Ms*1.043000)

defregion(161,94.png"))             //1.044000
Msat.setregion(161, Ms*1.044000)

defregion(160,95.png"))             //1.045000
Msat.setregion(160, Ms*1.045000)

defregion(159,96.png"))             //1.046000
Msat.setregion(159, Ms*1.046000)

defregion(158,97.png"))             //1.047000
Msat.setregion(158, Ms*1.047000)

defregion(157,98.png"))             //1.048000
Msat.setregion(157, Ms*1.048000)

defregion(156,99.png"))             //1.049000
Msat.setregion(156, Ms*1.049000)


save(regions)
save(alpha)
save(Msat)

// MaxDt = 1e-11
B_ext = vector(0.0,0.0,0.226)
relax()

save(m)

source_pos :=  10.0   //Position in relative units
sigma1x := 20.0E-9     //width of pump source in real units


excitation_mask := newVectorMask(Nx, Ny, 1)
for j:=0; j<Ny; j++{
	excitation_mask.setVector(source_pos, j, 0, vector(1.0, 0.0, 0.0))
}

f := 3.0E+9
Amp := 1.0E-3


autosave(m, 10 * FixDt)
// autosave(B_ext, 1.0E-9)


B_ext.add(excitation_mask, Amp*sin(2*pi*f*t))

run(runtime)






